(set-logic HORN)
(set-info :source |
    Benchmark: C_VC
    Output by Princess (http://www.philipp.ruemmer.org/princess.shtml)
|)
(set-info :status unknown)
(declare-fun inv_main2 () Bool)
(declare-fun inv_main6 (Int Int Int) Bool)
(declare-fun inv_main7 (Int Int Int) Bool)
(assert inv_main2 )
(assert (forall ((var0 Int)) (forall ((var1 Int)) (forall ((var2 Int)) (or (not (and (inv_main7 var0 var1 var2 ) (not (<= 0 (+ var1 (* (- 1) var0 ) ) ) ) ) ) (inv_main6 var0 var1 var2 ) ) ) ) ) )
(assert (forall ((var0 Int)) (forall ((var1 Int)) (forall ((var2 Int)) (or (not (and (inv_main7 var0 var1 var2 ) (and (= var0 4 ) (<= 0 (+ var1 (* (- 1) var0 ) ) ) ) ) ) (inv_main7 (+ var0 1 ) var1 (- 10) ) ) ) ) ) )
(assert (forall ((var0 Int)) (forall ((var1 Int)) (forall ((var2 Int)) (or (not (and (inv_main7 var0 var1 var2 ) (and (not (= var0 4 ) ) (<= 0 (+ var1 (* (- 1) var0 ) ) ) ) ) ) (inv_main7 (+ var0 1 ) var1 (+ var2 2 ) ) ) ) ) ) )
(assert (forall ((var0 Int)) (or (not (and inv_main2 (<= 0 var0 ) ) ) (inv_main7 1 var0 0 ) ) ) )
(assert (forall ((var0 Int)) (forall ((var1 Int)) (forall ((var2 Int)) (not (and (inv_main6 var0 var1 var2 ) (and (not (= (+ var2 (* (- 2) var1 ) ) 0 ) ) (not (= var2 0 ) ) ) ) ) ) ) ) )
(check-sat)
